NAME : tsp_380_sol.txt
COMMENT : OR-Tools Guided Local Search
TYPE : TOUR
DIMENSION : 50
COST : 6102
STATUS : ROUTING_SUCCESS
GAP : 0.00% (Reference Solution)
TOUR_SECTION
1
25
19
6
7
10
13
50
27
40
38
15
47
34
24
41
33
42
35
18
17
9
11
48
14
26
49
32
44
36
20
46
28
3
30
5
4
22
16
45
43
37
8
29
2
23
21
31
12
39
-1
